3 -57 10 0
-57 -58 0
53 -58 0
-58 0
10 0
-53 0
3 0
-51 0
7 0
-1 0
-13 0
-55 0
-16 0
-4 0
-9 0
-57 0
50 0
37 0
40 0
49 0
15 0
52 0
17 0
19 0
21 0
22 0
35 0
38 0
43 0
47 0
23 0
24 0
45 0
6 0
-56 0
-2 0
-44 0
0
